NAME : local_9
TYPE : ATSP
DIMENSION : 33
EDGE_WEIGHT_TYPE : EXPLICIT
EDGE_WEIGHT_FORMAT : FULL_MATRIX
EDGE_WEIGHT_SECTION
0 10000000 10000000 10000000 10000000 10000000 10000000 10000000 10000000 10000000 10000000 10000000 10000000 10000000 672 917 1056 10000000 10000000 926 787 364 10000000 281 734 10000000 10000000 781 604 872 10000000 10000000 10000000 
0 0 280 557 10000000 10000000 10000000 682 10000000 10000000 420 580 10000000 10000000 10000000 10000000 10000000 10000000 10000000 10000000 10000000 10000000 10000000 10000000 10000000 10000000 808 10000000 10000000 10000000 10000000 10000000 701 
0 280 0 334 10000000 10000000 10000000 742 836 10000000 295 431 10000000 10000000 10000000 10000000 781 10000000 10000000 10000000 10000000 10000000 10000000 10000000 10000000 980 600 10000000 10000000 842 10000000 10000000 803 
0 557 334 0 738 10000000 10000000 10000000 531 1257 576 666 10000000 10000000 849 10000000 774 10000000 10000000 10000000 10000000 10000000 10000000 10000000 10000000 10000000 737 10000000 981 613 1170 10000000 10000000 
0 10000000 10000000 738 0 10000000 10000000 10000000 420 640 10000000 10000000 10000000 10000000 632 10000000 10000000 10000000 10000000 10000000 10000000 10000000 10000000 10000000 10000000 10000000 10000000 10000000 997 647 593 10000000 10000000 
0 10000000 10000000 10000000 10000000 0 186 933 10000000 683 10000000 10000000 409 696 10000000 784 10000000 10000000 10000000 10000000 10000000 10000000 10000000 10000000 10000000 10000000 10000000 10000000 10000000 10000000 618 254 726 
0 10000000 10000000 10000000 10000000 186 0 823 10000000 664 1066 1307 253 534 10000000 654 10000000 10000000 821 10000000 10000000 10000000 10000000 10000000 10000000 10000000 10000000 887 10000000 10000000 700 402 656 
0 682 742 10000000 10000000 952 784 0 10000000 10000000 519 538 630 607 10000000 10000000 10000000 875 10000000 10000000 10000000 10000000 10000000 10000000 10000000 542 768 10000000 10000000 10000000 10000000 875 236 
0 10000000 836 531 420 10000000 10000000 10000000 0 858 991 10000000 10000000 10000000 419 10000000 818 10000000 10000000 923 10000000 10000000 10000000 941 10000000 10000000 970 10000000 681 294 950 10000000 10000000 
0 10000000 10000000 1121 640 683 664 10000000 850 0 10000000 10000000 846 10000000 794 475 10000000 10000000 915 10000000 951 873 10000000 10000000 10000000 10000000 10000000 714 10000000 929 365 916 10000000 
0 420 295 576 10000000 10000000 1072 519 991 10000000 0 160 981 985 10000000 10000000 687 10000000 10000000 973 10000000 10000000 950 10000000 10000000 684 406 10000000 10000000 918 10000000 10000000 648 
0 580 431 666 10000000 10000000 1107 538 10000000 10000000 160 0 955 926 10000000 10000000 580 954 10000000 861 10000000 10000000 806 10000000 10000000 566 267 10000000 10000000 897 10000000 10000000 702 
0 10000000 10000000 10000000 10000000 409 253 630 10000000 846 941 923 0 286 10000000 716 10000000 797 738 10000000 10000000 10000000 10000000 10000000 10000000 845 10000000 896 10000000 10000000 931 544 542 
0 10000000 10000000 10000000 10000000 696 534 607 10000000 10000000 993 930 286 0 10000000 805 10000000 541 657 10000000 992 10000000 10000000 10000000 10000000 657 10000000 907 10000000 10000000 10000000 809 610 
0 10000000 10000000 849 632 10000000 10000000 10000000 419 794 10000000 10000000 10000000 10000000 0 1000 736 10000000 10000000 735 10000000 804 10000000 538 10000000 10000000 974 1087 388 273 10000000 10000000 10000000 
0 10000000 10000000 10000000 10000000 784 654 10000000 10000000 475 10000000 10000000 716 805 991 0 10000000 995 453 10000000 502 636 10000000 10000000 805 10000000 10000000 270 10000000 10000000 806 10000000 10000000 
0 10000000 781 774 10000000 10000000 10000000 10000000 818 10000000 687 580 10000000 10000000 736 10000000 0 10000000 10000000 287 10000000 10000000 440 858 10000000 888 338 10000000 548 566 10000000 10000000 10000000 
0 10000000 10000000 10000000 10000000 10000000 10000000 875 10000000 10000000 10000000 954 797 541 10000000 1004 10000000 0 609 10000000 870 10000000 10000000 10000000 10000000 504 1001 915 10000000 10000000 10000000 10000000 10000000 
0 10000000 10000000 10000000 10000000 10000000 821 10000000 10000000 915 10000000 10000000 738 657 10000000 453 10000000 609 0 10000000 345 786 10000000 10000000 644 1059 10000000 347 10000000 10000000 10000000 10000000 10000000 
0 10000000 10000000 10000000 10000000 10000000 10000000 10000000 923 10000000 973 861 10000000 10000000 735 10000000 287 10000000 10000000 0 10000000 10000000 400 678 10000000 10000000 605 10000000 414 637 10000000 10000000 10000000 
0 10000000 10000000 10000000 10000000 10000000 10000000 10000000 10000000 951 10000000 10000000 10000000 992 10000000 502 10000000 870 345 10000000 0 499 10000000 10000000 326 10000000 10000000 238 10000000 10000000 10000000 10000000 10000000 
0 10000000 10000000 10000000 10000000 10000000 10000000 10000000 10000000 873 10000000 10000000 10000000 10000000 804 636 10000000 10000000 786 10000000 499 0 10000000 620 514 10000000 10000000 473 943 10000000 10000000 10000000 10000000 
0 10000000 10000000 10000000 10000000 10000000 10000000 10000000 10000000 10000000 950 806 10000000 10000000 10000000 10000000 440 10000000 10000000 400 10000000 10000000 0 10000000 10000000 852 548 10000000 810 978 10000000 10000000 10000000 
0 10000000 10000000 10000000 10000000 10000000 10000000 10000000 941 10000000 10000000 10000000 10000000 10000000 538 10000000 858 10000000 10000000 678 10000000 620 10000000 0 993 10000000 10000000 1076 382 712 10000000 10000000 10000000 
0 10000000 10000000 10000000 10000000 10000000 10000000 10000000 10000000 10000000 10000000 10000000 10000000 10000000 10000000 805 10000000 10000000 644 10000000 326 514 10000000 993 0 10000000 10000000 535 10000000 10000000 10000000 10000000 10000000 
0 10000000 980 10000000 10000000 10000000 10000000 542 10000000 10000000 684 566 845 657 10000000 10000000 888 504 1069 10000000 10000000 10000000 852 10000000 10000000 0 608 10000000 10000000 10000000 10000000 10000000 755 
0 808 600 737 10000000 10000000 10000000 768 970 10000000 406 267 10000000 10000000 974 10000000 338 983 10000000 605 10000000 10000000 548 10000000 10000000 608 0 10000000 868 783 10000000 10000000 942 
0 10000000 10000000 10000000 10000000 10000000 887 10000000 10000000 714 10000000 10000000 896 907 1072 270 10000000 914 347 10000000 238 473 10000000 1056 535 10000000 10000000 0 10000000 10000000 10000000 10000000 10000000 
0 10000000 10000000 981 997 10000000 10000000 10000000 681 10000000 10000000 10000000 10000000 10000000 388 10000000 548 10000000 10000000 414 10000000 855 810 382 10000000 10000000 868 10000000 0 409 10000000 10000000 10000000 
0 10000000 842 613 647 10000000 10000000 10000000 294 916 918 897 10000000 10000000 273 10000000 566 10000000 10000000 637 10000000 10000000 978 712 10000000 10000000 783 10000000 409 0 10000000 10000000 10000000 
0 10000000 10000000 1066 593 618 700 10000000 957 365 10000000 10000000 931 10000000 10000000 806 10000000 10000000 10000000 10000000 10000000 10000000 10000000 10000000 10000000 10000000 10000000 10000000 10000000 10000000 0 779 10000000 
0 10000000 10000000 10000000 10000000 254 402 875 10000000 916 10000000 10000000 544 809 10000000 10000000 10000000 10000000 10000000 10000000 10000000 10000000 10000000 10000000 10000000 10000000 10000000 10000000 10000000 10000000 779 0 663 
0 10000000 10000000 10000000 10000000 10000000 10000000 10000000 10000000 10000000 10000000 10000000 10000000 10000000 10000000 10000000 10000000 10000000 10000000 10000000 10000000 10000000 10000000 10000000 10000000 10000000 10000000 10000000 10000000 10000000 10000000 10000000 0 
EOF